; SWAP3 OR SWAP2 SWAP1 SWAP2 => SWAP2 SWAP3 OR
(set-option :produce-proofs true)
; 
(set-info :status unknown)
(declare-fun storage_t ((_ BitVec 256) (_ BitVec 256) (_ BitVec 256) (_ BitVec 256) Int (_ BitVec 256)) (_ BitVec 256))
(declare-fun storage_s ((_ BitVec 256) (_ BitVec 256) (_ BitVec 256) (_ BitVec 256) Int (_ BitVec 256)) (_ BitVec 256))
(declare-fun exc_halt_t (Int) Bool)
(declare-fun exc_halt_s (Int) Bool)
(declare-fun sc_t (Int) (_ BitVec 6))
(declare-fun stack_t ((_ BitVec 256) (_ BitVec 256) (_ BitVec 256) (_ BitVec 256) Int (_ BitVec 6)) (_ BitVec 256))
(declare-fun stack_s ((_ BitVec 256) (_ BitVec 256) (_ BitVec 256) (_ BitVec 256) Int (_ BitVec 6)) (_ BitVec 256))
(declare-fun sc_s (Int) (_ BitVec 6))
(declare-fun used_gas_t ((_ BitVec 256) (_ BitVec 256) (_ BitVec 256) (_ BitVec 256) Int) Int)
(declare-fun used_gas_s ((_ BitVec 256) (_ BitVec 256) (_ BitVec 256) (_ BitVec 256) Int) Int)
(assert
 (exists ((x_0 (_ BitVec 256)) (x_1 (_ BitVec 256)) (x_2 (_ BitVec 256)) (x_3 (_ BitVec 256)) )(let (($x4146 (forall ((w (_ BitVec 256)) )(let ((?x9028 (storage_t x_0 x_1 x_2 x_3 3 w)))
 (let ((?x11460 (storage_s x_0 x_1 x_2 x_3 5 w)))
 (= ?x11460 ?x9028))))
 ))
 (let (($x6783 (exc_halt_t 3)))
 (let (($x11317 (exc_halt_s 5)))
 (let (($x11613 (= $x11317 $x6783)))
 (let (($x4649 (forall ((n (_ BitVec 6)) )(let ((?x11551 (stack_t x_0 x_1 x_2 x_3 3 n)))
 (let ((?x10905 (stack_s x_0 x_1 x_2 x_3 5 n)))
 (let (($x1022 (= ?x10905 ?x11551)))
 (or $x1022 (bvsle (sc_t 3) n))))))
 ))
 (let ((?x6438 (sc_t 3)))
 (let ((?x4319 (sc_s 5)))
 (let (($x7281 (= ?x4319 ?x6438)))
 (let ((?x2121 (used_gas_t x_0 x_1 x_2 x_3 0)))
 (let ((?x10701 (used_gas_s x_0 x_1 x_2 x_3 0)))
 (let (($x10158 (= ?x10701 ?x2121)))
 (let (($x7429 (forall ((w (_ BitVec 256)) )(let ((?x9708 (storage_t x_0 x_1 x_2 x_3 0 w)))
 (let ((?x803 (storage_s x_0 x_1 x_2 x_3 0 w)))
 (= ?x803 ?x9708))))
 ))
 (let (($x56 (exc_halt_t 0)))
 (let (($x57 (exc_halt_s 0)))
 (let (($x58 (= $x57 $x56)))
 (let (($x8741 (forall ((n (_ BitVec 6)) )(let ((?x5924 (stack_t x_0 x_1 x_2 x_3 0 n)))
 (let ((?x6077 (stack_s x_0 x_1 x_2 x_3 0 n)))
 (let (($x11397 (= ?x6077 ?x5924)))
 (let ((?x63 (sc_t 0)))
 (let (($x1710 (bvsle ?x63 n)))
 (or $x1710 $x11397)))))))
 ))
 (let ((?x63 (sc_t 0)))
 (let ((?x72 (sc_s 0)))
 (let (($x73 (= ?x72 ?x63)))
 (let (($x1989 (= $x6783 (or (exc_halt_t 2) (not (bvsle (_ bv0 6) (bvadd (_ bv62 6) (sc_t 2))))))))
 (let (($x1114 (forall ((w (_ BitVec 256)) )(let ((?x4389 (storage_t x_0 x_1 x_2 x_3 2 w)))
 (let ((?x9028 (storage_t x_0 x_1 x_2 x_3 3 w)))
 (= ?x9028 ?x4389))))
 ))
 (let (($x450 (forall ((n (_ BitVec 6)) )(let ((?x4224 (stack_t x_0 x_1 x_2 x_3 2 n)))
 (let ((?x11551 (stack_t x_0 x_1 x_2 x_3 3 n)))
 (or (bvsle (bvadd (_ bv62 6) (sc_t 2)) n) (= ?x11551 ?x4224)))))
 ))
 (let (($x9545 (= (used_gas_t x_0 x_1 x_2 x_3 3) (+ 3 (used_gas_t x_0 x_1 x_2 x_3 2)))))
 (let ((?x2714 (sc_t 2)))
 (let ((?x3707 (bvadd (_ bv62 6) ?x2714)))
 (let ((?x11624 (stack_t x_0 x_1 x_2 x_3 2 ?x3707)))
 (let ((?x6840 (bvadd (_ bv63 6) ?x2714)))
 (let ((?x2399 (stack_t x_0 x_1 x_2 x_3 2 ?x6840)))
 (let (($x4868 (= (stack_t x_0 x_1 x_2 x_3 3 (bvadd (_ bv63 6) ?x6438)) (bvor ?x2399 ?x11624))))
 (let (($x2163 (exc_halt_t 2)))
 (let (($x6275 (= $x2163 (or (exc_halt_t 1) (not (bvsle (_ bv0 6) (bvadd (_ bv60 6) (sc_t 1))))))))
 (let (($x10921 (forall ((w (_ BitVec 256)) )(let ((?x567 (storage_t x_0 x_1 x_2 x_3 1 w)))
 (let ((?x4389 (storage_t x_0 x_1 x_2 x_3 2 w)))
 (= ?x4389 ?x567))))
 ))
 (let (($x5157 (forall ((n (_ BitVec 6)) )(let ((?x1225 (stack_t x_0 x_1 x_2 x_3 1 n)))
 (let ((?x4224 (stack_t x_0 x_1 x_2 x_3 2 n)))
 (or (= ?x4224 ?x1225) (bvsle (bvadd (_ bv60 6) (sc_t 1)) n)))))
 ))
 (let ((?x7154 (sc_t 1)))
 (let (($x7520 (= ?x2714 ?x7154)))
 (let ((?x7817 (used_gas_t x_0 x_1 x_2 x_3 2)))
 (let ((?x9090 (stack_t x_0 x_1 x_2 x_3 1 (bvadd (_ bv61 6) ?x7154))))
 (let ((?x2642 (bvadd (_ bv63 6) ?x7154)))
 (let ((?x1660 (stack_t x_0 x_1 x_2 x_3 1 ?x2642)))
 (let (($x8554 (forall ((w (_ BitVec 256)) )(let ((?x9708 (storage_t x_0 x_1 x_2 x_3 0 w)))
 (let ((?x567 (storage_t x_0 x_1 x_2 x_3 1 w)))
 (= ?x567 ?x9708))))
 ))
 (let (($x11642 (forall ((n (_ BitVec 6)) )(let ((?x5924 (stack_t x_0 x_1 x_2 x_3 0 n)))
 (let ((?x1225 (stack_t x_0 x_1 x_2 x_3 1 n)))
 (or (= ?x1225 ?x5924) (bvsle (bvadd (_ bv61 6) (sc_t 0)) n)))))
 ))
 (let ((?x10607 (bvadd (_ bv62 6) ?x7154)))
 (let ((?x5069 (stack_t x_0 x_1 x_2 x_3 1 ?x10607)))
 (let (($x10370 (= $x11317 (or (exc_halt_s 4) (not (bvsle (_ bv0 6) (bvadd (_ bv61 6) (sc_s 4))))))))
 (let (($x10497 (forall ((w (_ BitVec 256)) )(let ((?x11118 (storage_s x_0 x_1 x_2 x_3 4 w)))
 (let ((?x11460 (storage_s x_0 x_1 x_2 x_3 5 w)))
 (= ?x11460 ?x11118))))
 ))
 (let (($x2522 (forall ((n (_ BitVec 6)) )(let ((?x10267 (stack_s x_0 x_1 x_2 x_3 4 n)))
 (let ((?x10905 (stack_s x_0 x_1 x_2 x_3 5 n)))
 (or (= ?x10905 ?x10267) (bvsle (bvadd (_ bv61 6) (sc_s 4)) n)))))
 ))
 (let (($x4292 (= (used_gas_s x_0 x_1 x_2 x_3 5) (+ 3 (used_gas_s x_0 x_1 x_2 x_3 4)))))
 (let ((?x4305 (sc_s 4)))
 (let ((?x4222 (bvadd (_ bv62 6) ?x4305)))
 (let ((?x1118 (stack_s x_0 x_1 x_2 x_3 4 ?x4222)))
 (let ((?x5156 (bvadd (_ bv63 6) ?x4305)))
 (let ((?x4860 (stack_s x_0 x_1 x_2 x_3 4 ?x5156)))
 (let (($x9964 (= (stack_s x_0 x_1 x_2 x_3 5 (bvadd (_ bv63 6) ?x4319)) (stack_s x_0 x_1 x_2 x_3 4 (bvadd (_ bv61 6) ?x4305)))))
 (let (($x7172 (exc_halt_s 4)))
 (let (($x976 (= $x7172 (or (exc_halt_s 3) (not (bvsle (_ bv0 6) (bvadd (_ bv62 6) (sc_s 3))))))))
 (let (($x2390 (forall ((w (_ BitVec 256)) )(let ((?x9695 (storage_s x_0 x_1 x_2 x_3 3 w)))
 (let ((?x11118 (storage_s x_0 x_1 x_2 x_3 4 w)))
 (= ?x11118 ?x9695))))
 ))
 (let (($x5523 (forall ((n (_ BitVec 6)) )(let ((?x1928 (stack_s x_0 x_1 x_2 x_3 3 n)))
 (let ((?x10267 (stack_s x_0 x_1 x_2 x_3 4 n)))
 (let ((?x275 (sc_s 3)))
 (let ((?x3946 (bvadd (_ bv62 6) ?x275)))
 (let (($x7436 (bvsle ?x3946 n)))
 (or $x7436 (= ?x10267 ?x1928))))))))
 ))
 (let ((?x275 (sc_s 3)))
 (let (($x4821 (= ?x4305 ?x275)))
 (let ((?x2759 (used_gas_s x_0 x_1 x_2 x_3 4)))
 (let (($x292 (exc_halt_s 3)))
 (let (($x9731 (= $x292 (or (exc_halt_s 2) (not (bvsle (_ bv0 6) (bvadd (_ bv61 6) (sc_s 2))))))))
 (let (($x6982 (forall ((w (_ BitVec 256)) )(let ((?x11115 (storage_s x_0 x_1 x_2 x_3 2 w)))
 (let ((?x9695 (storage_s x_0 x_1 x_2 x_3 3 w)))
 (= ?x9695 ?x11115))))
 ))
 (let (($x914 (forall ((n (_ BitVec 6)) )(let ((?x8598 (stack_s x_0 x_1 x_2 x_3 2 n)))
 (let ((?x1928 (stack_s x_0 x_1 x_2 x_3 3 n)))
 (or (= ?x1928 ?x8598) (bvsle (bvadd (_ bv61 6) (sc_s 2)) n)))))
 ))
 (let ((?x218 (sc_s 2)))
 (let (($x8522 (= ?x275 ?x218)))
 (let ((?x2067 (used_gas_s x_0 x_1 x_2 x_3 3)))
 (let ((?x3946 (bvadd (_ bv62 6) ?x275)))
 (let ((?x2963 (stack_s x_0 x_1 x_2 x_3 3 ?x3946)))
 (let ((?x9888 (bvadd (_ bv63 6) ?x218)))
 (let ((?x4475 (stack_s x_0 x_1 x_2 x_3 2 ?x9888)))
 (let ((?x4768 (bvadd (_ bv63 6) ?x275)))
 (let ((?x10685 (stack_s x_0 x_1 x_2 x_3 3 ?x4768)))
 (let (($x247 (exc_halt_s 2)))
 (let (($x6121 (= $x247 (or (exc_halt_s 1) (not (bvsle (_ bv0 6) (bvadd (_ bv62 6) (sc_s 1))))))))
 (let (($x10788 (forall ((w (_ BitVec 256)) )(let ((?x4748 (storage_s x_0 x_1 x_2 x_3 1 w)))
 (let ((?x11115 (storage_s x_0 x_1 x_2 x_3 2 w)))
 (= ?x11115 ?x4748))))
 ))
 (let (($x11312 (forall ((n (_ BitVec 6)) )(let ((?x154 (sc_s 1)))
 (let ((?x6225 (bvadd (_ bv62 6) ?x154)))
 (let (($x6726 (bvsle ?x6225 n)))
 (let ((?x11097 (stack_s x_0 x_1 x_2 x_3 1 n)))
 (let ((?x8598 (stack_s x_0 x_1 x_2 x_3 2 n)))
 (or (= ?x8598 ?x11097) $x6726)))))))
 ))
 (let ((?x154 (sc_s 1)))
 (let ((?x3500 (bvadd (_ bv63 6) ?x154)))
 (let (($x465 (= ?x218 ?x3500)))
 (let ((?x9680 (used_gas_s x_0 x_1 x_2 x_3 2)))
 (let ((?x6225 (bvadd (_ bv62 6) ?x154)))
 (let ((?x4406 (stack_s x_0 x_1 x_2 x_3 1 ?x6225)))
 (let ((?x2203 (stack_s x_0 x_1 x_2 x_3 1 ?x3500)))
 (let (($x9078 (forall ((w (_ BitVec 256)) )(let ((?x803 (storage_s x_0 x_1 x_2 x_3 0 w)))
 (let ((?x4748 (storage_s x_0 x_1 x_2 x_3 1 w)))
 (= ?x4748 ?x803))))
 ))
 (let (($x115 (forall ((n (_ BitVec 6)) )(let ((?x6077 (stack_s x_0 x_1 x_2 x_3 0 n)))
 (let ((?x11097 (stack_s x_0 x_1 x_2 x_3 1 n)))
 (or (bvsle (bvadd (_ bv60 6) (sc_s 0)) n) (= ?x11097 ?x6077)))))
 ))
 (let (($x3766 (= (stack_s x_0 x_1 x_2 x_3 1 (bvadd (_ bv61 6) ?x154)) (stack_s x_0 x_1 x_2 x_3 0 (bvadd (_ bv61 6) ?x72)))))
 (let (($x727 (= (stack_s x_0 x_1 x_2 x_3 1 (bvadd (_ bv60 6) ?x154)) (stack_s x_0 x_1 x_2 x_3 0 (bvadd (_ bv63 6) ?x72)))))
 (let (($x5141 (forall ((w (_ BitVec 256)) )(let ((?x803 (storage_s x_0 x_1 x_2 x_3 0 w)))
 (= ?x803 (_ bv0 256))))
 ))
 (let (($x10797 (= ?x10701 0)))
 (let (($x1892 (not $x57)))
 (let (($x5089 (= (stack_s x_0 x_1 x_2 x_3 0 (_ bv3 6)) x_3)))
 (let (($x8077 (= (stack_s x_0 x_1 x_2 x_3 0 (_ bv2 6)) x_2)))
 (let (($x3611 (= (stack_s x_0 x_1 x_2 x_3 0 (_ bv1 6)) x_1)))
 (let (($x1000 (= (stack_s x_0 x_1 x_2 x_3 0 (_ bv0 6)) x_0)))
 (let (($x289 (= ?x72 (_ bv4 6))))
 (and $x289 $x1000 $x3611 $x8077 $x5089 $x1892 $x10797 $x5141 (= ?x2203 (stack_s x_0 x_1 x_2 x_3 0 (bvadd (_ bv60 6) ?x72))) $x727 $x3766 (= ?x4406 (stack_s x_0 x_1 x_2 x_3 0 (bvadd (_ bv62 6) ?x72))) (= (used_gas_s x_0 x_1 x_2 x_3 1) (+ 3 ?x10701)) (= ?x154 ?x72) $x115 $x9078 (= (exc_halt_s 1) (or $x57 (not (bvsle (_ bv0 6) (bvadd (_ bv60 6) ?x72))))) (= ?x4475 (bvor ?x2203 ?x4406)) (= ?x9680 (+ 3 (used_gas_s x_0 x_1 x_2 x_3 1))) $x465 $x11312 $x10788 $x6121 (= ?x10685 (stack_s x_0 x_1 x_2 x_3 2 (bvadd (_ bv61 6) ?x218))) (= (stack_s x_0 x_1 x_2 x_3 3 (bvadd (_ bv61 6) ?x275)) ?x4475) (= ?x2963 (stack_s x_0 x_1 x_2 x_3 2 (bvadd (_ bv62 6) ?x218))) (= ?x2067 (+ 3 ?x9680)) $x8522 $x914 $x6982 $x9731 (= ?x4860 ?x2963) (= ?x1118 ?x10685) (= ?x2759 (+ 3 ?x2067)) $x4821 $x5523 $x2390 $x976 $x9964 (= (stack_s x_0 x_1 x_2 x_3 5 (bvadd (_ bv61 6) ?x4319)) ?x4860) (= (stack_s x_0 x_1 x_2 x_3 5 (bvadd (_ bv62 6) ?x4319)) ?x1118) $x4292 (= ?x4319 ?x4305) $x2522 $x10497 $x10370 (= ?x1660 (stack_t x_0 x_1 x_2 x_3 0 (bvadd (_ bv61 6) ?x63))) (= ?x9090 (stack_t x_0 x_1 x_2 x_3 0 (bvadd (_ bv63 6) ?x63))) (= ?x5069 (stack_t x_0 x_1 x_2 x_3 0 (bvadd (_ bv62 6) ?x63))) (= (used_gas_t x_0 x_1 x_2 x_3 1) (+ 3 ?x2121)) (= ?x7154 ?x63) $x11642 $x8554 (= (exc_halt_t 1) (or $x56 (not (bvsle (_ bv0 6) (bvadd (_ bv61 6) ?x63))))) (= ?x2399 (stack_t x_0 x_1 x_2 x_3 1 (bvadd (_ bv60 6) ?x7154))) (= (stack_t x_0 x_1 x_2 x_3 2 (bvadd (_ bv60 6) ?x2714)) ?x1660) (= (stack_t x_0 x_1 x_2 x_3 2 (bvadd (_ bv61 6) ?x2714)) ?x9090) (= ?x11624 ?x5069) (= ?x7817 (+ 3 (used_gas_t x_0 x_1 x_2 x_3 1))) $x7520 $x5157 $x10921 $x6275 $x4868 $x9545 (= ?x6438 ?x6840) $x450 $x1114 $x1989 $x73 $x8741 $x58 $x7429 $x10158 (not (and $x7281 $x4649 $x11613 $x4146))))))))))))))))))))))))))))))))))))))))))))))))))))))))))))))))))))))))))))))))))))))))))))))))))))
 )
(check-sat)
(get-proof)
